RAW/CMTT/fspd/CMT7T.vrp_seed-9.out
903.0474612	1.34	27.947
