RAW/CMTT/fspd/CMT7T.vrp_seed-9.sol
Route #1: 6 33 43 41 56 23 63
Route #2: 46 8 19 59 14 35 7
Route #3: 67 34 52 54 13 57 15 27
Route #4: 32 50 18 55 25 9
Route #5: 4 45 29 5 47 48 30
Route #6: 2 28 61 69 21 74 75
Route #7: 51 16 49 24 3 44 40 17
Route #8: 73 1 42 64 22 62 68
Route #9: 36 71 60 70 20 37
Route #10: 38 65 66 11 53
Route #11: 26 58 10 31 39 72 12
Cost 903.047461